Version identifier: 20.1.0.0 | 2020-11-10 | 9bedb6d68
CPXPARAM_LPMethod                                3
CPXPARAM_QPMethod                                3
CPXPARAM_Threads                                 4
CPXPARAM_MIP_Strategy_StartAlgorithm             3
CPXPARAM_Emphasis_MIP                            1
CPXPARAM_MIP_Limits_Solutions                    1
CPXPARAM_TimeLimit                               43196
Tried aggregator 1 time.
MIP Presolve eliminated 1102 rows and 0 columns.
Reduced MIP has 6586 rows, 496 columns, and 23744 nonzeros.
Reduced MIP has 496 binaries, 0 generals, 0 SOSs, and 0 indicators.
Presolve time = 0,03 sec. (10,79 ticks)
Probing time = 0,01 sec. (0,45 ticks)
Tried aggregator 1 time.
Detecting symmetries...
Reduced MIP has 6586 rows, 496 columns, and 23744 nonzeros.
Reduced MIP has 496 binaries, 0 generals, 0 SOSs, and 0 indicators.
Presolve time = 0,02 sec. (10,64 ticks)
Probing time = 0,00 sec. (1,03 ticks)
MIP emphasis: integer feasibility.
MIP search method: dynamic search.
Parallel mode: deterministic, using up to 4 threads.
Root relaxation solution time = 0,33 sec. (99,33 ticks)

        Nodes                                         Cuts/
   Node  Left     Objective  IInf  Best Integer    Best Bound    ItCnt     Gap

      0     0       53,0000    19                     53,0000      821         
      0     0       53,0000    31                    Fract: 1      842         
      0     0        cutoff                                        842         
Elapsed time = 1,48 sec. (425,43 ticks, tree = 0,01 MB, solutions = 0)

Root node processing (before b&c):
  Real time             =    1,48 sec. (425,51 ticks)
Parallel b&c, 4 threads:
  Real time             =    0,00 sec. (0,00 ticks)
  Sync time (average)   =    0,00 sec.
  Wait time (average)   =    0,00 sec.
                          ------------
Total (root+branch&cut) =    1,48 sec. (425,51 ticks)
